%chk=benz_1.chk 
#p INDO NOSYMM 
  
 This is Gaussian file created by HARLEM 
  
  0 1 
 H     0.929362915000000    -1.970376530000000    -0.389593887000000 
 C    -2.755236949000000    -0.880002027000000     0.216134841000000 
 C    -1.754779914000000     0.087552176000000     0.064726166000000 
 C    -0.428702844000000    -0.304870524000000    -0.153273890000000 
 C    -0.103082805000000    -1.664847428000000    -0.219865272000000 
 C    -1.103539839000000    -2.632401632000000    -0.068456598000000 
 C    -2.429616910000000    -2.239978932000000     0.149543459000000 
 H    -3.787682668000000    -0.574472926000000     0.385863456000000 
 H    -2.008298373000000     1.146391336000000     0.116572314000000 
 H    -0.850021380000000    -3.691240793000000    -0.120302745000000 
 H    -3.201398050000000    -2.986377889000000     0.266344437000000 
 H     0.343078296000000     0.441528434000000    -0.270074866000000 
  
  
  
