%chk=feam6_1.chk 
#p INDO NOSYMM 
  
 This is Gaussian file created by HARLEM 
  
  2 1 
 Fe     1.475000000000000     9.871000000000000     0.841000000000000 
 N     3.030000000000000    10.786000000000000     1.995000000000000 
 N     1.409000000000000     8.260000000000000     2.251000000000000 
 N     0.031000000000000     8.888999999999999    -0.365000000000000 
 N     1.559000000000000    11.451000000000001    -0.602000000000000 
 N     3.005000000000000     8.797000000000001    -0.265000000000000 
 N     0.056000000000000    10.895000000000000     1.908000000000000 
 H     3.874000000000000    10.468999999999999     1.695000000000000 
 H     2.916000000000000    10.564000000000000     2.912000000000000 
 H     2.989000000000000    11.728000000000000     1.891000000000000 
 H     2.019000000000000     7.584000000000000     1.986000000000000 
 H     0.531000000000000     7.902000000000000     2.280000000000000 
 H     1.648000000000000     8.586000000000000     3.112000000000000 
 H    -0.840000000000000     9.169000000000001    -0.107000000000000 
 H     0.107000000000000     7.951000000000000    -0.249000000000000 
 H     0.178000000000000     9.109000000000000    -1.277000000000000 
 H     2.191000000000000    11.228000000000000    -1.275000000000000 
 H     1.820000000000000    12.257000000000000    -0.173000000000000 
 H     0.702000000000000    11.561999999999999    -0.996000000000000 
 H     3.863000000000000     9.039000000000000     0.065000000000000 
 H     2.945000000000000     9.022000000000000    -1.187000000000000 
 H     2.876000000000000     7.864000000000000    -0.158000000000000 
 H    -0.699716220000000    10.206496826000000     2.256218859000000 
 H    -0.401627337000000    11.641361609000000     1.275606476000000 
 H     0.520543870000000    11.377501594000000     2.755225593000000 
  
  
  
