%chk=h2_1.chk
#p CNDO NOSYMM 
  
 This is Gaussian file created by HARLEM 
  
  0 1 
 H    -0.500000000000000     0.000000000000000     0.000000000000000 
 H     0.500000000000000     0.000000000000000     0.000000000000000 
  
  
  
